experiments/mac_ortools/detailed-output/inst-31-1005409605.dzn

A = 3;
T = 63;
X = 8;
Y = 8;
Z = 8;
building = array2d(0..7, 0..7,
                   [0, 0, 0, 0, 0, 0, 0, 0, 0, 5, 0, 4, 2, 4, 7, 0, 0, 2, 5, 1, 3, 4, 6, 0, 0, 4, 1, 1, 1, 1, 1, 0,
                    0, 1, 1, 1, 1, 1, 1, 0, 0, 1, 1, 1, 1, 1, 1, 0, 0, 1, 1, 1, 1, 1, 1, 0, 0, 0, 0, 0, 0, 0, 0, 0]);
